
Gurobi 6.0.4 (win64) logging started 06/23/15 14:12:06

Read LP format model from file C:\MT\repository\VRPTWMS\instances\mip\fuel\N14-C_DV100-C_SV30_F6_8_No_1.lp
Reading time = 0.02 seconds
(null): 1149 rows, 512 columns, 4917 nonzeros
Optimize a model with 1149 rows, 512 columns and 4917 nonzeros
Model has 2744 quadratic constraints
Coefficient statistics:
  Matrix range    [1e+00, 1e+06]
  Objective range [1e+04, 1e+07]
  Bounds range    [1e+00, 1e+06]
  RHS range       [1e+00, 1e+06]
Presolve removed 130 rows and 58 columns
Presolve time: 0.17s
Presolved: 5497 rows, 2693 columns, 29509 nonzeros
Variable types: 2239 continuous, 454 integer (396 binary)
Found heuristic solution: objective 1.355707e+08

Root relaxation: objective 1.847011e+06, 148 iterations, 0.00 seconds

    Nodes    |    Current Node    |     Objective Bounds      |     Work
 Expl Unexpl |  Obj  Depth IntInf | Incumbent    BestBd   Gap | It/Node Time

     0     0 1847011.32    0   55 1.3557e+08 1847011.32  98.6%     -    0s
H    0     0                    8.452760e+07 1847011.32  97.8%     -    0s
     0     0 2286465.27    0   70 8.4528e+07 2286465.27  97.3%     -    0s
H    0     0                    7.423420e+07 2286465.27  96.9%     -    0s
     0     0 2473811.77    0   72 7.4234e+07 2473811.77  96.7%     -    0s
     0     0 2597136.10    0   61 7.4234e+07 2597136.10  96.5%     -    0s
     0     0 2653386.67    0   52 7.4234e+07 2653386.67  96.4%     -    0s
     0     0 2654066.67    0   54 7.4234e+07 2654066.67  96.4%     -    0s
     0     0 2654066.67    0   55 7.4234e+07 2654066.67  96.4%     -    0s
     0     0 2654066.67    0   53 7.4234e+07 2654066.67  96.4%     -    0s
H    0     2                    4.315900e+07 2654066.67  93.9%     -    0s
     0     2 2654066.67    0   45 4.3159e+07 2654066.67  93.9%     -    0s
H   94    88                    4.313350e+07 3408464.01  92.1%  37.0    0s
H  166   128                    4.312850e+07 3411441.26  92.1%  34.8    0s
*  193   157              39    4.305470e+07 3411441.26  92.1%  32.1    0s
H  235   177                    4.300910e+07 3411441.26  92.1%  31.5    0s
H  242   183                    4.283390e+07 3411441.26  92.0%  31.4    0s
H  277   204                    4.278840e+07 3411441.26  92.0%  29.9    1s
H  545   365                    4.277090e+07 7110086.46  83.4%  27.8    1s
H  993   630                    4.273310e+07 1.2354e+07  71.1%  25.3    1s
* 1530   762              32    4.273110e+07 1.2361e+07  71.1%  27.0    3s
H 1603   741                    4.270380e+07 1.2361e+07  71.1%  27.0    3s
H 1667   732                    4.268630e+07 1.2361e+07  71.0%  27.3    4s
* 1744   706              36    4.267450e+07 1.2361e+07  71.0%  27.4    4s
H 1814   699                    4.265700e+07 1.2361e+07  71.0%  27.4    4s
* 1966   675              42    4.262220e+07 1.2361e+07  71.0%  27.4    4s
H 2106   663                    4.260470e+07 1.2367e+07  71.0%  27.6    4s
  2118   672 2.2399e+07   31   45 4.2605e+07 1.2374e+07  71.0%  27.7    5s
H 3014   841                    4.259820e+07 1.2528e+07  70.6%  27.6    6s
  5543  1406 3.6298e+07   53   24 4.2598e+07 1.4945e+07  64.9%  27.0   10s
  9293  2300 2.2372e+07   37   28 4.2598e+07 2.2345e+07  47.5%  25.6   15s
 13555  3396 2.4280e+07   47   46 4.2598e+07 2.2490e+07  47.2%  25.2   20s
 17667  4370 3.2820e+07   21   28 4.2598e+07 2.2558e+07  47.0%  25.2   25s
 20911  4901 2.5237e+07   48   53 4.2598e+07 2.2611e+07  46.9%  25.4   41s
 20927  4914 2.2611e+07   25  102 4.2598e+07 2.2611e+07  46.9%  25.5   45s
 21333  4953 3.2648e+07   35   17 4.2598e+07 2.2611e+07  46.9%  25.5   50s
 24852  4677 3.2754e+07   47   22 4.2598e+07 2.4976e+07  41.4%  26.0   55s
 28158  4161 infeasible   33      4.2598e+07 3.2545e+07  23.6%  26.2   60s
 31133  3295 3.2638e+07   39    5 4.2598e+07 3.2632e+07  23.4%  26.5   65s
 33873  2220     cutoff   35      4.2598e+07 3.2725e+07  23.2%  26.9   70s
 36360  1429 3.8018e+07   53    9 4.2598e+07 3.2814e+07  23.0%  27.2   75s
 38641  1018     cutoff   42      4.2598e+07 3.2913e+07  22.7%  27.6   80s
 40985   408 infeasible   40      4.2598e+07 3.3103e+07  22.3%  27.9   85s

Cutting planes:
  Learned: 1
  Gomory: 4
  Cover: 4
  Implied bound: 52
  Clique: 4
  MIR: 6
  Flow cover: 11
  GUB cover: 7
  Zero half: 30

Explored 41988 nodes (1175444 simplex iterations) in 86.56 seconds
Thread count was 2 (of 4 available processors)

Optimal solution found (tolerance 1.00e-04)
Best objective 4.259820000000e+07, best bound 4.259820000000e+07, gap 0.0%
k_c1	970000.0
k_c10	1000000.0
k_c11	40000.0
k_c12	1000000.0
k_c13	980000.0
k_c14	70000.0
k_c2	930000.0
k_c3	30000.0
k_c4	40000.0
k_c5	10000.0
k_c6	70000.0
k_c7	80000.0
k_c8	100000.0
k_c9	1000000.0
k_dN	0.0
o_1	0.0
o_10	0.0
o_11	0.0
o_12	0.0
o_13	0.0
o_14	0.0
o_2	0.0
o_3	0.0
o_4	0.0
o_5	0.0
o_6	0.0
o_7	0.0
o_8	0.0
o_9	0.0
p_1	0.0
p_10	0.0
p_11	0.0
p_12	0.0
p_13	0.0
p_14	0.0
p_2	0.0
p_3	0.0
p_4	0.0
p_5	0.0
p_6	0.0
p_7	0.0
p_8	0.0
p_9	0.0
phi_c1	33159.0
phi_c10	52889.0
phi_c11	47503.0
phi_c12	50126.0
phi_c13	41402.0
phi_c14	6851.0
phi_c2	24696.0
phi_c3	15661.0
phi_c4	12336.0
phi_c5	5352.0
phi_c6	22281.0
phi_c7	21655.0
phi_c8	22753.0
phi_c9	46807.0
phi_d0	60000.0
phi_dN	0.0
tauD_c1	158375.0
tauD_c10	101450.0
tauD_c11	250000.0
tauD_c12	50000.0
tauD_c13	392600.0
tauD_c14	716000.0
tauD_c2	250000.0
tauD_c3	600000.0
tauD_c4	650000.0
tauD_c5	771600.0
tauD_c6	450000.0
tauD_c7	535175.0
tauD_c8	250000.0
tauD_c9	50000.0
tauD_d0	0.0
tauD_dN	1000000.0
tauS_c1	164325.0
tauS_c10	0.0
tauS_c11	124925.0
tauS_c12	156350.0
tauS_c13	0.0
tauS_c14	0.0
tauS_c2	0.0
tauS_c3	0.0
tauS_c4	0.0
tauS_c5	0.0
tauS_c6	0.0
tauS_c7	0.0
tauS_c8	141900.0
tauS_c9	0.0
tauS_d0	0.0
tauS_dN	0.0
x_c10_c8	1.0
x_c11_dN	1.0
x_c12_c13	1.0
x_c13_c7	1.0
x_c14_c5	1.0
x_c1_c2	1.0
x_c2_c6	1.0
x_c3_dN	1.0
x_c4_dN	1.0
x_c5_dN	1.0
x_c6_c3	1.0
x_c7_c4	1.0
x_c8_c14	1.0
x_c9_c1	1.0
x_d0_c10	1.0
x_d0_c11	1.0
x_d0_c12	1.0
x_d0_c9	1.0
